data;

param num_top:=5;

#nodes and edges of the physical network
param n := 10;

set E := (1,2) (1,3) (1,7) (2,4) (2,7) (3,5) (4,8) (5,6) (5,7) (6,7) (6,9) (7,8) (7,9) (8,10) (9,10) ;

#nodes and edges of the virtual networks
set Nl[1] := 7 9 8 6 4 ;
set Nl[2] := 4 3 9 10 7 ;
set Nl[3] := 5 3 4 2 10 ;
set Nl[4] := 7 9 6 10 3 ;
set Nl[5] := 8 7 5 9 2 ;

set El[1] := (7,9) (8,9) (6,8) (4,6) (4,7) (6,9) (4,8) (6,7) (7,8) (4,9) ;
set El[2] := (3,4) (3,9) (9,10) (7,10) (4,7) (3,10) (7,9) (4,10) (4,9) (3,7) ;
set El[3] := (3,5) (3,4) (2,4) (2,10) (5,10) (4,10) (2,3) (4,5) (2,5) (3,10) ;
set El[4] := (7,9) (6,9) (6,10) (3,10) (3,7) (6,7) (3,9) (9,10) (3,6) (7,10) ;
set El[5] := (7,8) (5,7) (5,9) (2,9) (2,8) (2,5) (8,9) (7,9) (5,8) (2,7) ;
